NAME : pairopt.-190984.tour
COMMENT : Length = -190984
COMMENT : Found by LKH-3 [Keld Helsgaun] Sat Apr  8 12:13:18 2023
TYPE : TOUR
DIMENSION : 37
TOUR_SECTION
1
3
29
31
36
28
33
35
19
24
12
10
9
8
14
26
6
32
34
5
18
23
4
11
37
2
16
17
15
13
21
22
27
20
25
7
30
-1
EOF
